Route #1: 46 4 39 42 44 53
Route #2: 62 61 30 57 3 60
Route #3: 40 64 34 6 36 1 49 35 19
Route #4: 14 50 11 20 7
Route #5: 32 65 37 23 8 59
Route #6: 66 51 24 29 38 10 27 43
Route #7: 17 16 41 2 26 18 31
Route #8: 47 33 12 45 52 22 58
Route #9: 13 54 55 56 15 28
Route #10: 9 48 25 21 63 5
Cost 1090